51
100
70	20
69	17
68	21
67	18
66	19
65	25
64	19
63	18
62	24
61	23
60	17
59	26
58	12
57	19
56	20
55	20
54	17
53	24
52	10
51	16
50	23
49	16
48	28
47	21
46	19
45	18
44	27
43	21
42	20
41	12
40	19
39	24
38	7
37	17
36	27
35	18
34	21
33	19
32	20
31	20
30	18
29	20
28	26
27	23
26	24
25	17
24	21
23	20
22	11
21	17
20	21
